unsat
((set-logic NIA)
(declare-fun r!1 () Int)
(declare-fun b!2 () Int)
(declare-fun s!0 () Int)
(declare-fun a!4 () Int)
(declare-fun q!3 () Int)
(declare-fun p!5 () Int)
(proof
(let ((?x254 (* b!2 r!1)))
 (let ((?x132 (* s00 a00)))
 (let ((?x968 (+ ?x132 (* (- 1) (* r00 b00)) (* (- 1) (* a!4 s!0)) ?x254)))
 (let (($x1185 (>= ?x968 0)))
 (let (($x1003 (= ?x968 0)))
 (let ((?x256 (* (- 1) ?x254)))
 (let ((?x248 (* a!4 s!0)))
 (let ((?x150 (* r00 b00)))
 (let ((?x139 (* (- 1) ?x132)))
 (let ((?x988 (+ ?x139 ?x150 ?x248 ?x256)))
 (let ((?x1727 (* b!2 b!2 b!2 b!2 s!0 s!0 s!0 q!3 q!3 q!3 q!3)))
 (let ((?x1717 (* a!4 b!2 b!2 b!2 s!0 s!0 s!0 q!3 q!3 q!3 q!3)))
 (let ((?x1620 (* p!5 b!2 b!2 b!2 b!2 s!0 s!0 s!0 q!3 q!3 q!3)))
 (let ((?x1222 (* a!4 p!5 b!2 b!2 b!2 r!1 r!1 r!1 q!3 q!3 q!3)))
 (let ((?x1237 (* (- 1) ?x1222)))
 (let ((?x1229 (* (- 1) (* a!4 p!5 p!5 p!5 b!2 r!1 r!1 q!3 q!3))))
 (let ((?x656 (* p!5 b!2 b!2 b!2 b!2 r!1 r!1 s!0 q!3 q!3 q!3)))
 (let ((?x651 (* b!2 b!2 b!2 b!2 r!1 r!1 s!0 q!3 q!3 q!3 q!3)))
 (let ((?x642 (* b!2 b!2 b!2 b!2 r!1 s!0 s!0 q!3 q!3 q!3 q!3)))
 (let ((?x639 (* p!5 b!2 b!2 b!2 b!2 r!1 r!1 r!1 q!3 q!3 q!3)))
 (let ((?x638 (* a!4 b!2 b!2 b!2 r!1 r!1 r!1 q!3 q!3 q!3 q!3)))
 (let ((?x554 (* a!4 b!2 b!2 b!2 r!1 s!0 s!0 q!3 q!3 q!3 q!3)))
 (let ((?x545 (* p!5 b!2 b!2 b!2 b!2 r!1 s!0 s!0 q!3 q!3 q!3)))
 (let ((?x544 (* a!4 p!5 b!2 b!2 b!2 r!1 s!0 s!0 q!3 q!3 q!3)))
 (let ((?x482 (* a!4 p!5 b!2 b!2 b!2 s!0 s!0 s!0 q!3 q!3 q!3)))
 (let ((?x471 (* a!4 b!2 b!2 b!2 r!1 r!1 s!0 q!3 q!3 q!3 q!3)))
 (let ((?x355 (* b!2 b!2 b!2 b!2 r!1 r!1 r!1 q!3 q!3 q!3 q!3)))
 (let ((?x349 (* a!4 p!5 b!2 b!2 b!2 r!1 r!1 s!0 q!3 q!3 q!3)))
 (let ((?x339 (+ p!5 (* (- 1) q!3))))
 (let ((?x219 (+ a!4 (* (- 1) b!2))))
 (let ((?x209 (+ r!1 (* (- 1) s!0))))
 (let ((?x274 (* ?x209 ?x209 ?x219 ?x219 ?x219 ?x339 ?x339 ?x339 s!0 s!0 b!2 b!2 b!2 q!3 q!3 q!3)))
 (let ((?x1809 (+ (* (- 6) (* a!4 p!5 p!5 b!2 r!1 s!0 q!3 q!3 q!3)) (* p!5 p!5 p!5 b!2 b!2 r!1 r!1 q!3 q!3) (* (- 2) (* p!5 p!5 p!5 b!2 b!2 r!1 s!0 q!3 q!3)) (* 2 (* b!2 b!2 r!1 s!0 q!3 q!3 q!3 q!3 q!3)) (* (- 1) (* a!4 p!5 p!5 p!5 b!2 s!0 s!0 q!3 q!3)) (* p!5 p!5 p!5 b!2 b!2 s!0 s!0 q!3 q!3) (* 3 (* a!4 p!5 p!5 b!2 s!0 s!0 q!3 q!3 q!3)) (* (- 6) (* p!5 b!2 b!2 r!1 s!0 q!3 q!3 q!3 q!3)) (* 6 (* p!5 p!5 b!2 b!2 r!1 s!0 q!3 q!3 q!3)) ?x274 (* (- 2) (* a!4 b!2 r!1 s!0 q!3 q!3 q!3 q!3 q!3)) (* (- 3) (* a!4 p!5 b!2 s!0 s!0 q!3 q!3 q!3 q!3)) (* 6 (* a!4 p!5 b!2 r!1 s!0 q!3 q!3 q!3 q!3)) (* (- 1) (* b!2 b!2 s!0 s!0 q!3 q!3 q!3 q!3 q!3)) (* 3 ?x349) (* (- 1) ?x355) (* (- 3) ?x471) ?x482 (* (- 3) ?x544) (* 3 ?x545) (* 3 ?x554) ?x638 ?x639 (* (- 3) ?x642) (* 3 ?x651) (* (- 3) ?x656) (* 2 (* a!4 p!5 p!5 p!5 b!2 r!1 s!0 q!3 q!3)) (* (- 1) (* b!2 b!2 r!1 r!1 q!3 q!3 q!3 q!3 q!3)) (* 3 (* a!4 p!5 p!5 b!2 r!1 r!1 q!3 q!3 q!3)) ?x1229 ?x1237 (* (- 3) (* p!5 p!5 b!2 b!2 r!1 r!1 q!3 q!3 q!3)) (* 3 (* p!5 b!2 b!2 r!1 r!1 q!3 q!3 q!3 q!3)) (* 3 (* p!5 b!2 b!2 s!0 s!0 q!3 q!3 q!3 q!3)) (* (- 3) (* p!5 p!5 b!2 b!2 s!0 s!0 q!3 q!3 q!3)) (* (- 1) ?x1620) (* (- 1) ?x1717) ?x1727 (* (- 3) (* a!4 p!5 b!2 r!1 r!1 q!3 q!3 q!3 q!3)) (* a!4 b!2 r!1 r!1 q!3 q!3 q!3 q!3 q!3) (* a!4 b!2 s!0 s!0 q!3 q!3 q!3 q!3 q!3))))
 (let ((?x393 (* ?x1809 ?x988)))
 (let (($x1263 (= ?x393 0)))
 (let ((?x2000 (* a!4 a!4 a!4 a!4 p!5 p!5 r!1 r!1 r!1 q!3 q!3)))
 (let ((?x1881 (* a!4 a!4 a!4 p!5 p!5 p!5 p!5 b!2 r!1 r!1 r!1)))
 (let ((?x1906 (+ (* (- 1) p!5) q!3)))
 (let ((?x1072 (+ (* (- 1) a!4) b!2)))
 (let ((?x802 (+ (* (- 1) r!1) s!0)))
 (let ((?x1596 (* ?x802 ?x802 ?x1072 ?x1072 ?x1072 ?x1906 ?x1906 ?x1906 r!1 r!1 a!4 a!4 a!4 p!5 p!5 p!5)))
 (let ((?x1410 (* a!4 a!4 p!5 p!5 p!5 p!5 b!2 b!2 r!1 r!1 r!1)))
 (let ((?x1407 (* a!4 p!5 p!5 p!5 p!5 b!2 b!2 b!2 r!1 r!1 r!1)))
 (let ((?x1380 (* a!4 a!4 a!4 p!5 p!5 b!2 r!1 r!1 r!1 q!3 q!3)))
 (let ((?x1227 (* a!4 a!4 a!4 a!4 p!5 p!5 p!5 p!5 r!1 r!1 r!1)))
 (let ((?x1217 (* a!4 a!4 p!5 b!2 b!2 r!1 r!1 r!1 q!3 q!3 q!3)))
 (let ((?x867 (* a!4 a!4 p!5 p!5 b!2 b!2 r!1 r!1 r!1 q!3 q!3)))
 (let ((?x857 (* a!4 p!5 p!5 p!5 b!2 b!2 b!2 r!1 r!1 r!1 q!3)))
 (let ((?x255 (* a!4 a!4 a!4 p!5 b!2 r!1 r!1 r!1 q!3 q!3 q!3)))
 (let ((?x180 (* a!4 a!4 a!4 a!4 p!5 p!5 p!5 r!1 r!1 r!1 q!3)))
 (let ((?x179 (* a!4 a!4 a!4 p!5 p!5 p!5 b!2 r!1 r!1 r!1 q!3)))
 (let ((?x178 (* a!4 a!4 p!5 p!5 p!5 b!2 b!2 r!1 r!1 r!1 q!3)))
 (let ((?x169 (* a!4 p!5 p!5 b!2 b!2 b!2 r!1 r!1 r!1 q!3 q!3)))
 (let ((?x153 (* a!4 a!4 a!4 a!4 p!5 r!1 r!1 r!1 q!3 q!3 q!3)))
 (let ((?x232 (+ ?x153 (* 3 ?x169) (* 9 ?x178) (* (- 9) ?x179) (* 3 ?x180) (* (- 3) ?x255) (* (- 2) (* a!4 a!4 p!5 p!5 p!5 p!5 r!1 r!1 q!3)) (* (- 1) (* a!4 p!5 p!5 p!5 p!5 p!5 b!2 r!1 r!1)) (* 2 (* a!4 p!5 p!5 p!5 p!5 b!2 r!1 r!1 q!3)) (* (- 3) ?x857) (* (- 9) ?x867) (* 3 ?x1217) ?x1229 ?x1237 (* (- 1) ?x1227) (* 9 ?x1380) ?x1407 (* (- 3) ?x1410) (* a!4 a!4 p!5 p!5 p!5 r!1 r!1 q!3 q!3) ?x1596 (* 3 ?x1881) (* (- 3) ?x2000) (* a!4 a!4 p!5 p!5 p!5 p!5 p!5 r!1 r!1))))
 (let ((?x227 (* ?x232 ?x988)))
 (let (($x1242 (= ?x227 0)))
 (let (($x226 (not $x1242)))
 (let (($x2006 (or $x226 (not $x1263))))
 (let ((?x1249 (+ (* p00 b00 s!0) (* q00 r00 b!2) (* (- 1) (* p00 s00 b!2)) (* (- 1) (* r00 b00 q!3)) (* s00 a00 q!3) (* (- 1) (* q00 a00 s!0)))))
 (let ((?x1208 (+ (* s00 a00 p!5) (* (- 1) (* p00 s00 a!4)) (* q00 r00 a!4) (* (- 1) (* r00 b00 p!5)) (* (- 1) (* q00 a00 r!1)) (* p00 b00 r!1))))
 (let ((?x1164 (* p!5 b!2)))
 (let ((?x138 (* q00 a00)))
 (let (($x1137 (= (+ ?x138 (* (- 1) (* p00 b00)) ?x1164 (* (- 1) (* a!4 q!3))) 0)))
 (let ((?x41 (* q00 r00)))
 (let ((?x1523 (* (- 1) ?x41)))
 (let ((?x37 (* p00 s00)))
 (let (($x580 (and (= (+ ?x37 ?x1523 (* r!1 q!3) (* (- 1) (* p!5 s!0))) 0) $x1003 $x1137 (= ?x1208 0) (= ?x1249 0) $x2006)))
 (let ((?x1176 (+ ?x248 ?x256 ?x139 ?x150)))
 (let ((?x1351 (* q!3 q!3 q!3 q!3 b!2 b!2 b!2 b!2 s!0 s!0 s!0)))
 (let ((?x2016 (* a!4 q!3 q!3 q!3 q!3 b!2 b!2 b!2 s!0 s!0 s!0)))
 (let ((?x2010 (* p!5 q!3 q!3 q!3 b!2 b!2 b!2 b!2 s!0 s!0 s!0)))
 (let ((?x2009 (* p!5 a!4 q!3 q!3 q!3 b!2 b!2 b!2 s!0 s!0 s!0)))
 (let ((?x1662 (* q!3 q!3 q!3 q!3 b!2 b!2 b!2 b!2 r!1 s!0 s!0)))
 (let ((?x845 (* a!4 q!3 q!3 q!3 q!3 b!2 b!2 b!2 r!1 s!0 s!0)))
 (let ((?x517 (* p!5 q!3 q!3 q!3 b!2 b!2 b!2 b!2 r!1 s!0 s!0)))
 (let ((?x203 (* p!5 a!4 q!3 q!3 q!3 b!2 b!2 b!2 r!1 s!0 s!0)))
 (let ((?x1262 (* p!5 a!4 q!3 q!3 q!3 b!2 b!2 b!2 r!1 r!1 r!1)))
 (let ((?x2129 (* (- 1) ?x1262)))
 (let ((?x202 (* p!5 q!3 q!3 q!3 b!2 b!2 b!2 b!2 r!1 r!1 r!1)))
 (let ((?x198 (* a!4 q!3 q!3 q!3 q!3 b!2 b!2 b!2 r!1 r!1 r!1)))
 (let ((?x2116 (* q!3 q!3 q!3 q!3 b!2 b!2 b!2 b!2 r!1 r!1 r!1)))
 (let ((?x2111 (* p!5 a!4 q!3 q!3 q!3 b!2 b!2 b!2 r!1 r!1 s!0)))
 (let ((?x737 (* p!5 q!3 q!3 q!3 b!2 b!2 b!2 b!2 r!1 r!1 s!0)))
 (let ((?x730 (* a!4 q!3 q!3 q!3 q!3 b!2 b!2 b!2 r!1 r!1 s!0)))
 (let ((?x275 (* q!3 q!3 q!3 q!3 b!2 b!2 b!2 b!2 r!1 r!1 s!0)))
 (let ((?x1875 (* (- 1) (* p!5 p!5 p!5 a!4 q!3 q!3 b!2 r!1 r!1))))
 (let ((?x1358 (+ (* 3 (* p!5 q!3 q!3 q!3 q!3 b!2 b!2 r!1 r!1)) (* (- 3) (* p!5 a!4 q!3 q!3 q!3 q!3 b!2 r!1 r!1)) (* (- 3) (* p!5 p!5 q!3 q!3 q!3 b!2 b!2 r!1 r!1)) (* 3 (* p!5 p!5 a!4 q!3 q!3 q!3 b!2 r!1 r!1)) (* p!5 p!5 p!5 q!3 q!3 b!2 b!2 r!1 r!1) ?x1875 (* a!4 q!3 q!3 q!3 q!3 q!3 b!2 r!1 r!1) (* (- 1) (* q!3 q!3 q!3 q!3 q!3 b!2 b!2 r!1 r!1)) (* 2 (* p!5 p!5 p!5 a!4 q!3 q!3 b!2 r!1 s!0)) (* (- 2) (* p!5 p!5 p!5 q!3 q!3 b!2 b!2 r!1 s!0)) (* (- 6) (* p!5 p!5 a!4 q!3 q!3 q!3 b!2 r!1 s!0)) (* 6 (* p!5 p!5 q!3 q!3 q!3 b!2 b!2 r!1 s!0)) (* 6 (* p!5 a!4 q!3 q!3 q!3 q!3 b!2 r!1 s!0)) (* (- 6) (* p!5 q!3 q!3 q!3 q!3 b!2 b!2 r!1 s!0)) (* (- 2) (* a!4 q!3 q!3 q!3 q!3 q!3 b!2 r!1 s!0)) (* 2 (* q!3 q!3 q!3 q!3 q!3 b!2 b!2 r!1 s!0)) (* (- 1) (* p!5 p!5 p!5 a!4 q!3 q!3 b!2 s!0 s!0)) (* p!5 p!5 p!5 q!3 q!3 b!2 b!2 s!0 s!0) (* 3 (* p!5 p!5 a!4 q!3 q!3 q!3 b!2 s!0 s!0)) (* (- 3) (* p!5 p!5 q!3 q!3 q!3 b!2 b!2 s!0 s!0)) (* (- 3) (* p!5 a!4 q!3 q!3 q!3 q!3 b!2 s!0 s!0)) (* 3 (* p!5 q!3 q!3 q!3 q!3 b!2 b!2 s!0 s!0)) (* a!4 q!3 q!3 q!3 q!3 q!3 b!2 s!0 s!0) (* (- 1) (* q!3 q!3 q!3 q!3 q!3 b!2 b!2 s!0 s!0)) ?x274 (* 3 ?x275) (* (- 3) ?x730) (* (- 3) ?x737) (* 3 ?x2111) (* (- 1) ?x2116) ?x198 ?x202 ?x2129 (* (- 3) ?x203) (* 3 ?x517) (* 3 ?x845) (* (- 3) ?x1662) ?x2009 (* (- 1) ?x2010) (* (- 1) ?x2016) ?x1351)))
 (let ((?x1032 (* p!5 a!4 a!4 q!3 q!3 q!3 b!2 b!2 r!1 r!1 r!1)))
 (let ((?x1853 (* p!5 a!4 a!4 a!4 q!3 q!3 q!3 b!2 r!1 r!1 r!1)))
 (let ((?x1855 (* p!5 a!4 a!4 a!4 a!4 q!3 q!3 q!3 r!1 r!1 r!1)))
 (let ((?x2096 (* p!5 p!5 a!4 q!3 q!3 b!2 b!2 b!2 r!1 r!1 r!1)))
 (let ((?x1278 (* p!5 p!5 a!4 a!4 q!3 q!3 b!2 b!2 r!1 r!1 r!1)))
 (let ((?x1238 (* p!5 p!5 a!4 a!4 a!4 q!3 q!3 b!2 r!1 r!1 r!1)))
 (let ((?x1331 (* p!5 p!5 a!4 a!4 a!4 a!4 q!3 q!3 r!1 r!1 r!1)))
 (let ((?x1918 (* p!5 p!5 p!5 a!4 q!3 b!2 b!2 b!2 r!1 r!1 r!1)))
 (let ((?x1753 (* p!5 p!5 p!5 a!4 a!4 q!3 b!2 b!2 r!1 r!1 r!1)))
 (let ((?x1756 (* p!5 p!5 p!5 a!4 a!4 a!4 q!3 b!2 r!1 r!1 r!1)))
 (let ((?x1760 (* p!5 p!5 p!5 a!4 a!4 a!4 a!4 q!3 r!1 r!1 r!1)))
 (let ((?x343 (* p!5 p!5 p!5 p!5 a!4 b!2 b!2 b!2 r!1 r!1 r!1)))
 (let ((?x1916 (* p!5 p!5 p!5 p!5 a!4 a!4 b!2 b!2 r!1 r!1 r!1)))
 (let ((?x1893 (* p!5 p!5 p!5 p!5 a!4 a!4 a!4 b!2 r!1 r!1 r!1)))
 (let ((?x2130 (* p!5 p!5 p!5 p!5 a!4 a!4 a!4 a!4 r!1 r!1 r!1)))
 (let ((?x1034 (+ ?x1875 ?x2129 (* (- 1) ?x2130) ?x1596 (* 3 ?x1893) (* (- 3) ?x1916) ?x343 (* p!5 p!5 p!5 a!4 a!4 q!3 q!3 r!1 r!1) (* 2 (* p!5 p!5 p!5 p!5 a!4 q!3 b!2 r!1 r!1)) (* (- 2) (* p!5 p!5 p!5 p!5 a!4 a!4 q!3 r!1 r!1)) (* (- 1) (* p!5 p!5 p!5 p!5 p!5 a!4 b!2 r!1 r!1)) (* p!5 p!5 p!5 p!5 p!5 a!4 a!4 r!1 r!1) (* 3 ?x1760) (* (- 9) ?x1756) (* 9 ?x1753) (* (- 3) ?x1918) (* (- 3) ?x1331) (* 9 ?x1238) (* (- 9) ?x1278) (* 3 ?x2096) ?x1855 (* (- 3) ?x1853) (* 3 ?x1032))))
 (let ((?x1866 (+ (* b!2 q00 r00) (* (- 1) (* b!2 p00 s00)) (* s!0 p00 b00) (* (- 1) (* q!3 r00 b00)) (* q!3 s00 a00) (* (- 1) (* s!0 q00 a00)))))
 (let ((?x1610 (+ (* a!4 p00 s00) (* (- 1) (* a!4 q00 r00)) (* p!5 r00 b00) (* (- 1) (* r!1 p00 b00)) (* (- 1) (* p!5 s00 a00)) (* r!1 q00 a00))))
 (let (($x1180 (= (+ (* a!4 q!3) (* (- 1) ?x138) (* p00 b00) (* (- 1) ?x1164)) 0)))
 (let (($x240 (= (+ (* p!5 s!0) (* (- 1) ?x37) ?x41 (* (- 1) (* q!3 r!1))) 0)))
 (let (($x1299 (and $x240 (= ?x1176 0) $x1180 (= ?x1610 0) (= ?x1866 0) (or (not (= (* ?x1034 ?x1176) 0)) (not (= (* ?x1358 ?x1176) 0))))))
 (let (($x1432 (exists ((p Int) (a Int) (q Int) (b Int) (r Int) (s Int) )(! (let ((?x150 (* r00 b00)))
 (let ((?x132 (* s00 a00)))
 (let ((?x139 (* (- 1) ?x132)))
 (let ((?x127 (* (- 1) (* b r))))
 (let ((?x49 (* a s)))
 (let ((?x157 (+ ?x49 ?x127 ?x139 ?x150)))
 (let ((?x1307 (* q q q q b b b b s s s)))
 (let ((?x1354 (* (- 1) (* a q q q q b b b s s s))))
 (let ((?x1353 (* (- 1) (* p q q q b b b b s s s))))
 (let ((?x1281 (* p a q q q b b b s s s)))
 (let ((?x1384 (* (- 3) (* q q q q b b b b r s s))))
 (let ((?x1381 (* 3 (* a q q q q b b b r s s))))
 (let ((?x1378 (* 3 (* p q q q b b b b r s s))))
 (let ((?x1375 (* (- 3) (* p a q q q b b b r s s))))
 (let ((?x1347 (* (- 1) (* p a q q q b b b r r r))))
 (let ((?x1021 (* p q q q b b b b r r r)))
 (let ((?x1013 (* a q q q q b b b r r r)))
 (let ((?x1344 (* (- 1) (* q q q q b b b b r r r))))
 (let ((?x1368 (* 3 (* p a q q q b b b r r s))))
 (let ((?x1365 (* (- 3) (* p q q q b b b b r r s))))
 (let ((?x1362 (* (- 3) (* a q q q q b b b r r s))))
 (let ((?x1359 (* 3 (* q q q q b b b b r r s))))
 (let ((?x338 (+ p (* (- 1) q))))
 (let ((?x301 (+ a (* (- 1) b))))
 (let ((?x262 (* (- 1) s)))
 (let ((?x264 (+ r ?x262)))
 (let ((?x960 (* ?x264 ?x264 ?x301 ?x301 ?x301 ?x338 ?x338 ?x338 s s b b b q q q)))
 (let ((?x1099 (* (- 1) (* q q q q q b b s s))))
 (let ((?x907 (* a q q q q q b s s)))
 (let ((?x1044 (* 3 (* p q q q q b b s s))))
 (let ((?x1047 (* (- 3) (* p a q q q q b s s))))
 (let ((?x1050 (* (- 3) (* p p q q q b b s s))))
 (let ((?x1053 (* 3 (* p p a q q q b s s))))
 (let ((?x801 (* p p p q q b b s s)))
 (let ((?x1106 (* (- 1) (* p p p a q q b s s))))
 (let ((?x1058 (* 2 (* q q q q q b b r s))))
 (let ((?x1061 (* (- 2) (* a q q q q q b r s))))
 (let ((?x1064 (* (- 6) (* p q q q q b b r s))))
 (let ((?x1067 (* 6 (* p a q q q q b r s))))
 (let ((?x1070 (* 6 (* p p q q q b b r s))))
 (let ((?x1073 (* (- 6) (* p p a q q q b r s))))
 (let ((?x1076 (* (- 2) (* p p p q q b b r s))))
 (let ((?x1079 (* 2 (* p p p a q q b r s))))
 (let ((?x1115 (* (- 1) (* q q q q q b b r r))))
 (let ((?x523 (* a q q q q q b r r)))
 (let ((?x1117 (* (- 1) (* p p p a q q b r r))))
 (let ((?x429 (* p p p q q b b r r)))
 (let ((?x1086 (* 3 (* p p a q q q b r r))))
 (let ((?x1089 (* (- 3) (* p p q q q b b r r))))
 (let ((?x1092 (* (- 3) (* p a q q q q b r r))))
 (let ((?x1095 (* 3 (* p q q q q b b r r))))
 (let ((?x2124 (+ ?x1095 ?x1092 ?x1089 ?x1086 ?x429 ?x1117 ?x523 ?x1115 ?x1079 ?x1076 ?x1073 ?x1070 ?x1067 ?x1064 ?x1061 ?x1058 ?x1106 ?x801 ?x1053 ?x1050 ?x1047 ?x1044 ?x907 ?x1099 ?x960 ?x1359 ?x1362 ?x1365 ?x1368 ?x1344 ?x1013 ?x1021 ?x1347 ?x1375 ?x1378 ?x1381 ?x1384 ?x1281 ?x1353 ?x1354 ?x1307)))
 (let ((?x2183 (* 3 (* p a a q q q b b r r r))))
 (let ((?x2180 (* (- 3) (* p a a a q q q b r r r))))
 (let ((?x2041 (* p a a a a q q q r r r)))
 (let ((?x2175 (* 3 (* p p a q q b b b r r r))))
 (let ((?x2172 (* (- 9) (* p p a a q q b b r r r))))
 (let ((?x2169 (* 9 (* p p a a a q q b r r r))))
 (let ((?x2166 (* (- 3) (* p p a a a a q q r r r))))
 (let ((?x2163 (* (- 3) (* p p p a q b b b r r r))))
 (let ((?x2160 (* 9 (* p p p a a q b b r r r))))
 (let ((?x2157 (* (- 9) (* p p p a a a q b r r r))))
 (let ((?x2154 (* 3 (* p p p a a a a q r r r))))
 (let ((?x1547 (* p p p p p a a r r)))
 (let ((?x1660 (* (- 1) (* p p p p p a b r r))))
 (let ((?x1650 (* (- 2) (* p p p p a a q r r))))
 (let ((?x1653 (* 2 (* p p p p a q b r r))))
 (let ((?x1496 (* p p p a a q q r r)))
 (let ((?x1465 (* p p p p a b b b r r r)))
 (let ((?x2149 (* (- 3) (* p p p p a a b b r r r))))
 (let ((?x2146 (* 3 (* p p p p a a a b r r r))))
 (let ((?x1396 (* (- 1) p)))
 (let ((?x1360 (+ ?x1396 q)))
 (let ((?x504 (* (- 1) a)))
 (let ((?x435 (+ ?x504 b)))
 (let ((?x266 (* (- 1) r)))
 (let ((?x278 (+ ?x266 s)))
 (let ((?x1412 (* ?x278 ?x278 ?x435 ?x435 ?x435 ?x1360 ?x1360 ?x1360 r r a a a p p p)))
 (let ((?x2128 (* (- 1) (* p p p p a a a a r r r))))
 (let ((?x505 (+ ?x1117 ?x1347 ?x2128 ?x1412 ?x2146 ?x2149 ?x1465 ?x1496 ?x1653 ?x1650 ?x1660 ?x1547 ?x2154 ?x2157 ?x2160 ?x2163 ?x2166 ?x2169 ?x2172 ?x2175 ?x2041 ?x2180 ?x2183)))
 (let ((?x72 (* b q00 r00)))
 (let ((?x316 (+ ?x72 (* (- 1) (* b p00 s00)) (* s p00 b00) (* (- 1) (* q r00 b00)) (* q s00 a00) (* (- 1) (* s q00 a00)))))
 (let (($x321 (= ?x316 0)))
 (let ((?x63 (* a p00 s00)))
 (let ((?x252 (+ ?x63 (* (- 1) (* a q00 r00)) (* p r00 b00) (* (- 1) (* r p00 b00)) (* (- 1) (* p s00 a00)) (* r q00 a00))))
 (let (($x253 (= ?x252 0)))
 (let ((?x143 (* p00 b00)))
 (let ((?x138 (* q00 a00)))
 (let ((?x184 (* (- 1) ?x138)))
 (let (($x187 (= (+ (* a q) ?x184 ?x143 (* (- 1) (* p b))) 0)))
 (let (($x165 (= ?x157 0)))
 (let ((?x41 (* q00 r00)))
 (let ((?x37 (* p00 s00)))
 (let ((?x141 (* (- 1) ?x37)))
 (let ((?x33 (* p s)))
 (let (($x160 (= (+ ?x33 ?x141 ?x41 (* (- 1) (* q r))) 0)))
 (and $x160 $x165 $x187 $x253 $x321 (or (not (= (* ?x505 ?x157) 0)) (not (= (* ?x2124 ?x157) 0)))))))))))))))))))))))))))))))))))))))))))))))))))))))))))))))))))))))))))))))))))))))))))))))))))) :qid k!39))
 ))
 (let (($x1243 (exists ((p Int) (a Int) (q Int) (b Int) (r Int) (s Int) )(! (let ((?x51 (* b00 r00)))
 (let ((?x47 (* a00 s00)))
 (let ((?x1708 (* (- 1) ?x47)))
 (let ((?x1484 (+ (* (- 1) (* (+ r (* (- 1) s)) b)) ?x1708 (* (+ a (* (- 1) b)) s) ?x51)))
 (let ((?x338 (+ p (* (- 1) q))))
 (let ((?x301 (+ a (* (- 1) b))))
 (let ((?x262 (* (- 1) s)))
 (let ((?x264 (+ r ?x262)))
 (let ((?x1634 (* (- 1) (* ?x264 ?x264 ?x264 ?x301 ?x338 b b b q q q))))
 (let ((?x960 (* ?x264 ?x264 ?x301 ?x301 ?x301 ?x338 ?x338 ?x338 s s b b b q q q)))
 (let ((?x1421 (+ ?x960 (* (- 1) (* ?x264 ?x264 ?x301 ?x338 ?x338 ?x338 b q q)) ?x1634)))
 (let ((?x1461 (+ (* (- 1) (* (+ b (* (- 1) a)) r)) ?x1708 (* (+ s (* (- 1) r)) a) ?x51)))
 (let ((?x1396 (* (- 1) p)))
 (let ((?x1854 (+ q ?x1396)))
 (let ((?x504 (* (- 1) a)))
 (let ((?x1430 (+ b ?x504)))
 (let ((?x1444 (* (- 1) (* ?x1430 ?x1430 ?x1430 ?x1854 ?x1854 ?x1854 r r r a p))))
 (let ((?x266 (* (- 1) r)))
 (let ((?x1481 (+ s ?x266)))
 (let ((?x1567 (* ?x1481 ?x1481 ?x1430 ?x1430 ?x1430 ?x1854 ?x1854 ?x1854 r r a a a p p p)))
 (let ((?x1451 (+ ?x1567 (* (- 1) (* ?x1430 ?x1854 ?x1854 r r a p p p)) ?x1444)))
 (let (($x1505 (or (not (= (* ?x1451 ?x1461) 0)) (not (= (* ?x1421 ?x1484) 0)))))
 (let ((?x73 (* b00 p00 s)))
 (let ((?x1060 (+ (* q00 r00 b) ?x73 (* (- 1) (* b00 r00 q)) (* (- 1) (* p00 s00 b)) (* a00 s00 q) (* (- 1) (* a00 q00 s)))))
 (let (($x1168 (= ?x1060 0)))
 (let ((?x69 (* a00 q00 r)))
 (let ((?x1550 (* p00 s00 a)))
 (let ((?x804 (* b00 r00 p)))
 (let ((?x1990 (+ ?x804 ?x1550 (* (- 1) (* b00 p00 r)) (* (- 1) (* q00 r00 a)) (* (- 1) (* a00 s00 p)) ?x69)))
 (let ((?x57 (* b00 p00)))
 (let ((?x1537 (* q a)))
 (let (($x1992 (= (+ ?x1537 (* (- 1) (* a00 q00)) ?x57 (* (- 1) (* b p))) 0)))
 (let (($x1630 (= (+ (* r b) ?x47 (* (- 1) (* s a)) (* (- 1) ?x51)) 0)))
 (let ((?x41 (* q00 r00)))
 (let ((?x1523 (* (- 1) ?x41)))
 (let ((?x37 (* p00 s00)))
 (let ((?x327 (* r q)))
 (and (= (+ ?x327 (* (- 1) (* s p)) ?x37 ?x1523) 0) $x1630 $x1992 (= ?x1990 0) $x1168 $x1505)))))))))))))))))))))))))))))))))))))) :qid k!39))
 ))
 (let ((?x1436 (lambda ((p Int) (a Int) (q Int) (b Int) (r Int) (s Int) )(let ((?x150 (* r00 b00)))
 (let ((?x132 (* s00 a00)))
 (let ((?x139 (* (- 1) ?x132)))
 (let ((?x127 (* (- 1) (* b r))))
 (let ((?x49 (* a s)))
 (let ((?x157 (+ ?x49 ?x127 ?x139 ?x150)))
 (let ((?x1307 (* q q q q b b b b s s s)))
 (let ((?x1354 (* (- 1) (* a q q q q b b b s s s))))
 (let ((?x1353 (* (- 1) (* p q q q b b b b s s s))))
 (let ((?x1281 (* p a q q q b b b s s s)))
 (let ((?x1384 (* (- 3) (* q q q q b b b b r s s))))
 (let ((?x1381 (* 3 (* a q q q q b b b r s s))))
 (let ((?x1378 (* 3 (* p q q q b b b b r s s))))
 (let ((?x1375 (* (- 3) (* p a q q q b b b r s s))))
 (let ((?x1347 (* (- 1) (* p a q q q b b b r r r))))
 (let ((?x1021 (* p q q q b b b b r r r)))
 (let ((?x1013 (* a q q q q b b b r r r)))
 (let ((?x1344 (* (- 1) (* q q q q b b b b r r r))))
 (let ((?x1368 (* 3 (* p a q q q b b b r r s))))
 (let ((?x1365 (* (- 3) (* p q q q b b b b r r s))))
 (let ((?x1362 (* (- 3) (* a q q q q b b b r r s))))
 (let ((?x1359 (* 3 (* q q q q b b b b r r s))))
 (let ((?x338 (+ p (* (- 1) q))))
 (let ((?x301 (+ a (* (- 1) b))))
 (let ((?x262 (* (- 1) s)))
 (let ((?x264 (+ r ?x262)))
 (let ((?x960 (* ?x264 ?x264 ?x301 ?x301 ?x301 ?x338 ?x338 ?x338 s s b b b q q q)))
 (let ((?x1099 (* (- 1) (* q q q q q b b s s))))
 (let ((?x907 (* a q q q q q b s s)))
 (let ((?x1044 (* 3 (* p q q q q b b s s))))
 (let ((?x1047 (* (- 3) (* p a q q q q b s s))))
 (let ((?x1050 (* (- 3) (* p p q q q b b s s))))
 (let ((?x1053 (* 3 (* p p a q q q b s s))))
 (let ((?x801 (* p p p q q b b s s)))
 (let ((?x1106 (* (- 1) (* p p p a q q b s s))))
 (let ((?x1058 (* 2 (* q q q q q b b r s))))
 (let ((?x1061 (* (- 2) (* a q q q q q b r s))))
 (let ((?x1064 (* (- 6) (* p q q q q b b r s))))
 (let ((?x1067 (* 6 (* p a q q q q b r s))))
 (let ((?x1070 (* 6 (* p p q q q b b r s))))
 (let ((?x1073 (* (- 6) (* p p a q q q b r s))))
 (let ((?x1076 (* (- 2) (* p p p q q b b r s))))
 (let ((?x1079 (* 2 (* p p p a q q b r s))))
 (let ((?x1115 (* (- 1) (* q q q q q b b r r))))
 (let ((?x523 (* a q q q q q b r r)))
 (let ((?x1117 (* (- 1) (* p p p a q q b r r))))
 (let ((?x429 (* p p p q q b b r r)))
 (let ((?x1086 (* 3 (* p p a q q q b r r))))
 (let ((?x1089 (* (- 3) (* p p q q q b b r r))))
 (let ((?x1092 (* (- 3) (* p a q q q q b r r))))
 (let ((?x1095 (* 3 (* p q q q q b b r r))))
 (let ((?x2124 (+ ?x1095 ?x1092 ?x1089 ?x1086 ?x429 ?x1117 ?x523 ?x1115 ?x1079 ?x1076 ?x1073 ?x1070 ?x1067 ?x1064 ?x1061 ?x1058 ?x1106 ?x801 ?x1053 ?x1050 ?x1047 ?x1044 ?x907 ?x1099 ?x960 ?x1359 ?x1362 ?x1365 ?x1368 ?x1344 ?x1013 ?x1021 ?x1347 ?x1375 ?x1378 ?x1381 ?x1384 ?x1281 ?x1353 ?x1354 ?x1307)))
 (let ((?x2183 (* 3 (* p a a q q q b b r r r))))
 (let ((?x2180 (* (- 3) (* p a a a q q q b r r r))))
 (let ((?x2041 (* p a a a a q q q r r r)))
 (let ((?x2175 (* 3 (* p p a q q b b b r r r))))
 (let ((?x2172 (* (- 9) (* p p a a q q b b r r r))))
 (let ((?x2169 (* 9 (* p p a a a q q b r r r))))
 (let ((?x2166 (* (- 3) (* p p a a a a q q r r r))))
 (let ((?x2163 (* (- 3) (* p p p a q b b b r r r))))
 (let ((?x2160 (* 9 (* p p p a a q b b r r r))))
 (let ((?x2157 (* (- 9) (* p p p a a a q b r r r))))
 (let ((?x2154 (* 3 (* p p p a a a a q r r r))))
 (let ((?x1547 (* p p p p p a a r r)))
 (let ((?x1660 (* (- 1) (* p p p p p a b r r))))
 (let ((?x1650 (* (- 2) (* p p p p a a q r r))))
 (let ((?x1653 (* 2 (* p p p p a q b r r))))
 (let ((?x1496 (* p p p a a q q r r)))
 (let ((?x1465 (* p p p p a b b b r r r)))
 (let ((?x2149 (* (- 3) (* p p p p a a b b r r r))))
 (let ((?x2146 (* 3 (* p p p p a a a b r r r))))
 (let ((?x1396 (* (- 1) p)))
 (let ((?x1360 (+ ?x1396 q)))
 (let ((?x504 (* (- 1) a)))
 (let ((?x435 (+ ?x504 b)))
 (let ((?x266 (* (- 1) r)))
 (let ((?x278 (+ ?x266 s)))
 (let ((?x1412 (* ?x278 ?x278 ?x435 ?x435 ?x435 ?x1360 ?x1360 ?x1360 r r a a a p p p)))
 (let ((?x2128 (* (- 1) (* p p p p a a a a r r r))))
 (let ((?x505 (+ ?x1117 ?x1347 ?x2128 ?x1412 ?x2146 ?x2149 ?x1465 ?x1496 ?x1653 ?x1650 ?x1660 ?x1547 ?x2154 ?x2157 ?x2160 ?x2163 ?x2166 ?x2169 ?x2172 ?x2175 ?x2041 ?x2180 ?x2183)))
 (let ((?x72 (* b q00 r00)))
 (let ((?x316 (+ ?x72 (* (- 1) (* b p00 s00)) (* s p00 b00) (* (- 1) (* q r00 b00)) (* q s00 a00) (* (- 1) (* s q00 a00)))))
 (let (($x321 (= ?x316 0)))
 (let ((?x63 (* a p00 s00)))
 (let ((?x252 (+ ?x63 (* (- 1) (* a q00 r00)) (* p r00 b00) (* (- 1) (* r p00 b00)) (* (- 1) (* p s00 a00)) (* r q00 a00))))
 (let (($x253 (= ?x252 0)))
 (let ((?x143 (* p00 b00)))
 (let ((?x138 (* q00 a00)))
 (let ((?x184 (* (- 1) ?x138)))
 (let (($x187 (= (+ (* a q) ?x184 ?x143 (* (- 1) (* p b))) 0)))
 (let (($x165 (= ?x157 0)))
 (let ((?x41 (* q00 r00)))
 (let ((?x37 (* p00 s00)))
 (let ((?x141 (* (- 1) ?x37)))
 (let ((?x33 (* p s)))
 (let (($x160 (= (+ ?x33 ?x141 ?x41 (* (- 1) (* q r))) 0)))
 (let (($x2159 (and $x160 $x165 $x187 $x253 $x321 (or (not (= (* ?x505 ?x157) 0)) (not (= (* ?x2124 ?x157) 0))))))
 (let ((?x51 (* b00 r00)))
 (let ((?x47 (* a00 s00)))
 (let ((?x1708 (* (- 1) ?x47)))
 (let ((?x1634 (* (- 1) (* ?x264 ?x264 ?x264 ?x301 ?x338 b b b q q q))))
 (let ((?x1421 (+ ?x960 (* (- 1) (* ?x264 ?x264 ?x301 ?x338 ?x338 ?x338 b q q)) ?x1634)))
 (let (($x1632 (= (* ?x1421 (+ (* (- 1) (* ?x264 b)) ?x1708 (* ?x301 s) ?x51)) 0)))
 (let ((?x1461 (+ (* (- 1) (* (+ b ?x504) r)) ?x1708 (* (+ s ?x266) a) ?x51)))
 (let ((?x1854 (+ q ?x1396)))
 (let ((?x1430 (+ b ?x504)))
 (let ((?x1444 (* (- 1) (* ?x1430 ?x1430 ?x1430 ?x1854 ?x1854 ?x1854 r r r a p))))
 (let ((?x1481 (+ s ?x266)))
 (let ((?x1567 (* ?x1481 ?x1481 ?x1430 ?x1430 ?x1430 ?x1854 ?x1854 ?x1854 r r a a a p p p)))
 (let ((?x1451 (+ ?x1567 (* (- 1) (* ?x1430 ?x1854 ?x1854 r r a p p p)) ?x1444)))
 (let (($x1505 (or (not (= (* ?x1451 ?x1461) 0)) (not $x1632))))
 (let ((?x73 (* b00 p00 s)))
 (let ((?x1060 (+ (* q00 r00 b) ?x73 (* (- 1) (* b00 r00 q)) (* (- 1) (* p00 s00 b)) (* a00 s00 q) (* (- 1) (* a00 q00 s)))))
 (let (($x1168 (= ?x1060 0)))
 (let ((?x69 (* a00 q00 r)))
 (let ((?x1550 (* p00 s00 a)))
 (let ((?x804 (* b00 r00 p)))
 (let ((?x1990 (+ ?x804 ?x1550 (* (- 1) (* b00 p00 r)) (* (- 1) (* q00 r00 a)) (* (- 1) (* a00 s00 p)) ?x69)))
 (let ((?x57 (* b00 p00)))
 (let ((?x1537 (* q a)))
 (let (($x1992 (= (+ ?x1537 (* (- 1) (* a00 q00)) ?x57 (* (- 1) (* b p))) 0)))
 (let (($x1630 (= (+ (* r b) ?x47 (* (- 1) (* s a)) (* (- 1) ?x51)) 0)))
 (let (($x534 (= (+ (* r q) (* (- 1) (* s p)) ?x37 (* (- 1) ?x41)) 0)))
 (let (($x1506 (and $x534 $x1630 $x1992 (= ?x1990 0) $x1168 $x1505)))
 (rewrite (= $x1506 $x2159)))))))))))))))))))))))))))))))))))))))))))))))))))))))))))))))))))))))))))))))))))))))))))))))))))))))))))))))))))))))))))))))
 ))
 (let (($x1546 (exists ((p Int) (a Int) (q Int) (b Int) (r Int) (s Int) )(! (let ((?x51 (* b00 r00)))
 (let ((?x47 (* a00 s00)))
 (let ((?x1708 (* (- 1) ?x47)))
 (let ((?x1484 (+ (* (- 1) (* (+ r (* (- 1) s)) b)) ?x1708 (* (+ a (* (- 1) b)) s) ?x51)))
 (let ((?x338 (+ p (* (- 1) q))))
 (let ((?x301 (+ a (* (- 1) b))))
 (let ((?x262 (* (- 1) s)))
 (let ((?x264 (+ r ?x262)))
 (let ((?x1634 (* (- 1) (* ?x264 ?x264 ?x264 ?x301 ?x338 b b b q q q))))
 (let ((?x960 (* ?x264 ?x264 ?x301 ?x301 ?x301 ?x338 ?x338 ?x338 s s b b b q q q)))
 (let ((?x1421 (+ ?x960 (* (- 1) (* ?x264 ?x264 ?x301 ?x338 ?x338 ?x338 b q q)) ?x1634)))
 (let ((?x1461 (+ (* (- 1) (* (+ b (* (- 1) a)) r)) ?x1708 (* (+ s (* (- 1) r)) a) ?x51)))
 (let ((?x1396 (* (- 1) p)))
 (let ((?x1854 (+ q ?x1396)))
 (let ((?x504 (* (- 1) a)))
 (let ((?x1430 (+ b ?x504)))
 (let ((?x1444 (* (- 1) (* ?x1430 ?x1430 ?x1430 ?x1854 ?x1854 ?x1854 r r r a p))))
 (let ((?x266 (* (- 1) r)))
 (let ((?x1481 (+ s ?x266)))
 (let ((?x1567 (* ?x1481 ?x1481 ?x1430 ?x1430 ?x1430 ?x1854 ?x1854 ?x1854 r r a a a p p p)))
 (let ((?x1451 (+ ?x1567 (* (- 1) (* ?x1430 ?x1854 ?x1854 r r a p p p)) ?x1444)))
 (let (($x1505 (or (not (= (* ?x1451 ?x1461) 0)) (not (= (* ?x1421 ?x1484) 0)))))
 (let ((?x73 (* b00 p00 s)))
 (let ((?x1060 (+ (* q00 r00 b) ?x73 (* (- 1) (* b00 r00 q)) (* (- 1) (* p00 s00 b)) (* a00 s00 q) (* (- 1) (* a00 q00 s)))))
 (let (($x1168 (= ?x1060 0)))
 (let ((?x1522 (* a00 s00 p)))
 (let ((?x1525 (* q00 r00 a)))
 (let ((?x65 (* b00 p00 r)))
 (let ((?x1500 (+ (* (- 1) (* b00 r00 p)) (* (- 1) (* p00 s00 a)) ?x65 ?x1525 ?x1522 (* (- 1) (* a00 q00 r)))))
 (let ((?x59 (* b p)))
 (let ((?x55 (* a00 q00)))
 (let (($x1561 (= (+ (* (- 1) (* q a)) ?x55 (* (- 1) (* b00 p00)) ?x59) 0)))
 (let ((?x41 (* q00 r00)))
 (let ((?x37 (* p00 s00)))
 (let ((?x141 (* (- 1) ?x37)))
 (let ((?x1985 (* s p)))
 (and (= (+ (* (- 1) (* r q)) ?x1985 ?x141 ?x41) 0) (= (+ (* (- 1) (* r b)) ?x1708 (* s a) ?x51) 0) $x1561 (= ?x1500 0) $x1168 $x1505))))))))))))))))))))))))))))))))))))) :qid k!39))
 ))
 (let ((?x1548 (lambda ((p Int) (a Int) (q Int) (b Int) (r Int) (s Int) )(let ((?x51 (* b00 r00)))
 (let ((?x47 (* a00 s00)))
 (let ((?x1708 (* (- 1) ?x47)))
 (let ((?x1484 (+ (* (- 1) (* (+ r (* (- 1) s)) b)) ?x1708 (* (+ a (* (- 1) b)) s) ?x51)))
 (let ((?x338 (+ p (* (- 1) q))))
 (let ((?x301 (+ a (* (- 1) b))))
 (let ((?x262 (* (- 1) s)))
 (let ((?x264 (+ r ?x262)))
 (let ((?x1634 (* (- 1) (* ?x264 ?x264 ?x264 ?x301 ?x338 b b b q q q))))
 (let ((?x960 (* ?x264 ?x264 ?x301 ?x301 ?x301 ?x338 ?x338 ?x338 s s b b b q q q)))
 (let ((?x1421 (+ ?x960 (* (- 1) (* ?x264 ?x264 ?x301 ?x338 ?x338 ?x338 b q q)) ?x1634)))
 (let ((?x1461 (+ (* (- 1) (* (+ b (* (- 1) a)) r)) ?x1708 (* (+ s (* (- 1) r)) a) ?x51)))
 (let ((?x1396 (* (- 1) p)))
 (let ((?x1854 (+ q ?x1396)))
 (let ((?x504 (* (- 1) a)))
 (let ((?x1430 (+ b ?x504)))
 (let ((?x1444 (* (- 1) (* ?x1430 ?x1430 ?x1430 ?x1854 ?x1854 ?x1854 r r r a p))))
 (let ((?x266 (* (- 1) r)))
 (let ((?x1481 (+ s ?x266)))
 (let ((?x1567 (* ?x1481 ?x1481 ?x1430 ?x1430 ?x1430 ?x1854 ?x1854 ?x1854 r r a a a p p p)))
 (let ((?x1451 (+ ?x1567 (* (- 1) (* ?x1430 ?x1854 ?x1854 r r a p p p)) ?x1444)))
 (let (($x1505 (or (not (= (* ?x1451 ?x1461) 0)) (not (= (* ?x1421 ?x1484) 0)))))
 (let ((?x73 (* b00 p00 s)))
 (let ((?x1060 (+ (* q00 r00 b) ?x73 (* (- 1) (* b00 r00 q)) (* (- 1) (* p00 s00 b)) (* a00 s00 q) (* (- 1) (* a00 q00 s)))))
 (let (($x1168 (= ?x1060 0)))
 (let ((?x69 (* a00 q00 r)))
 (let ((?x1550 (* p00 s00 a)))
 (let ((?x804 (* b00 r00 p)))
 (let ((?x1990 (+ ?x804 ?x1550 (* (- 1) (* b00 p00 r)) (* (- 1) (* q00 r00 a)) (* (- 1) (* a00 s00 p)) ?x69)))
 (let ((?x57 (* b00 p00)))
 (let ((?x1537 (* q a)))
 (let (($x1992 (= (+ ?x1537 (* (- 1) (* a00 q00)) ?x57 (* (- 1) (* b p))) 0)))
 (let (($x1630 (= (+ (* r b) ?x47 (* (- 1) (* s a)) (* (- 1) ?x51)) 0)))
 (let ((?x41 (* q00 r00)))
 (let ((?x1523 (* (- 1) ?x41)))
 (let ((?x37 (* p00 s00)))
 (let ((?x327 (* r q)))
 (let (($x1506 (and (= (+ ?x327 (* (- 1) (* s p)) ?x37 ?x1523) 0) $x1630 $x1992 (= ?x1990 0) $x1168 $x1505)))
 (let ((?x1522 (* a00 s00 p)))
 (let ((?x1525 (* q00 r00 a)))
 (let ((?x65 (* b00 p00 r)))
 (let (($x1499 (= (+ (* (- 1) ?x804) (* (- 1) ?x1550) ?x65 ?x1525 ?x1522 (* (- 1) ?x69)) 0)))
 (let (($x1561 (= (+ (* (- 1) ?x1537) (* a00 q00) (* (- 1) ?x57) (* b p)) 0)))
 (let (($x1488 (and (= (+ (* (- 1) ?x327) (* s p) (* (- 1) ?x37) ?x41) 0) (= (+ (* (- 1) (* r b)) ?x1708 (* s a) ?x51) 0) $x1561 $x1499 $x1168 $x1505)))
 (rewrite (= $x1488 $x1506)))))))))))))))))))))))))))))))))))))))))))))))
 ))
 (let (($x116 (exists ((p Int) (a Int) (q Int) (b Int) (r Int) (s Int) )(! (let ((?x105 (- q p)))
 (let ((?x99 (- b a)))
 (let ((?x102 (- s r)))
 (let ((?x106 (* a a a ?x99 ?x99 ?x99 p p p ?x105 ?x105 ?x105 r r ?x102 ?x102)))
 (let ((?x110 (- (- ?x106 (* a ?x99 p p p ?x105 ?x105 r r)) (* a ?x99 ?x99 ?x99 p ?x105 ?x105 ?x105 r r r))))
 (let ((?x51 (* b00 r00)))
 (let ((?x111 (* (+ (- (* (- 1) ?x99 r) (* a00 s00)) (* a ?x102) ?x51) ?x110)))
 (let ((?x84 (- r s)))
 (let ((?x90 (- p q)))
 (let ((?x87 (- a b)))
 (let ((?x91 (* ?x87 ?x87 ?x87 b b b ?x90 ?x90 ?x90 q q q ?x84 ?x84 s s)))
 (let ((?x95 (- (- ?x91 (* ?x87 b ?x90 ?x90 ?x90 q q ?x84 ?x84)) (* ?x87 b b b ?x90 q q q ?x84 ?x84 ?x84))))
 (let ((?x96 (* (+ (- (* (- 1) b ?x84) (* a00 s00)) (* ?x87 s) ?x51) ?x95)))
 (let ((?x81 (* a00 q00 s)))
 (let ((?x76 (* b p00 s00)))
 (let ((?x77 (- (+ (* b q00 r00) (* b00 p00 s)) (* b00 q r00))))
 (let ((?x69 (* a00 q00 r)))
 (let ((?x66 (* a q00 r00)))
 (let ((?x65 (* b00 p00 r)))
 (let ((?x68 (+ (- (* (- 1) b00 p r00) (* a p00 s00)) ?x65 ?x66 (* a00 p s00))))
 (let ((?x59 (* b p)))
 (let ((?x60 (+ (- (+ (* (- 1) a q) (* a00 q00)) (* b00 p00)) ?x59)))
 (let (($x53 (= (+ (- (* (- 1) b r) (* a00 s00)) (* a s) ?x51) 0)))
 (let ((?x41 (* q00 r00)))
 (let ((?x42 (+ (- (+ (* (- 1) q r) (* p s)) (* p00 s00)) ?x41)))
 (and (= ?x42 0) $x53 (= ?x60 0) (= (- ?x68 ?x69) 0) (= (- (+ (- ?x77 ?x76) (* a00 q s00)) ?x81) 0) (or (not (= ?x96 0)) (not (= ?x111 0))))))))))))))))))))))))))))) :qid k!39))
 ))
 (let ((?x1518 (lambda ((p Int) (a Int) (q Int) (b Int) (r Int) (s Int) )(let ((?x51 (* b00 r00)))
 (let ((?x47 (* a00 s00)))
 (let ((?x1708 (* (- 1) ?x47)))
 (let ((?x1484 (+ (* (- 1) (* (+ r (* (- 1) s)) b)) ?x1708 (* (+ a (* (- 1) b)) s) ?x51)))
 (let ((?x338 (+ p (* (- 1) q))))
 (let ((?x301 (+ a (* (- 1) b))))
 (let ((?x262 (* (- 1) s)))
 (let ((?x264 (+ r ?x262)))
 (let ((?x1634 (* (- 1) (* ?x264 ?x264 ?x264 ?x301 ?x338 b b b q q q))))
 (let ((?x960 (* ?x264 ?x264 ?x301 ?x301 ?x301 ?x338 ?x338 ?x338 s s b b b q q q)))
 (let ((?x1421 (+ ?x960 (* (- 1) (* ?x264 ?x264 ?x301 ?x338 ?x338 ?x338 b q q)) ?x1634)))
 (let ((?x1461 (+ (* (- 1) (* (+ b (* (- 1) a)) r)) ?x1708 (* (+ s (* (- 1) r)) a) ?x51)))
 (let ((?x1396 (* (- 1) p)))
 (let ((?x1854 (+ q ?x1396)))
 (let ((?x504 (* (- 1) a)))
 (let ((?x1430 (+ b ?x504)))
 (let ((?x1444 (* (- 1) (* ?x1430 ?x1430 ?x1430 ?x1854 ?x1854 ?x1854 r r r a p))))
 (let ((?x266 (* (- 1) r)))
 (let ((?x1481 (+ s ?x266)))
 (let ((?x1567 (* ?x1481 ?x1481 ?x1430 ?x1430 ?x1430 ?x1854 ?x1854 ?x1854 r r a a a p p p)))
 (let ((?x1451 (+ ?x1567 (* (- 1) (* ?x1430 ?x1854 ?x1854 r r a p p p)) ?x1444)))
 (let (($x1505 (or (not (= (* ?x1451 ?x1461) 0)) (not (= (* ?x1421 ?x1484) 0)))))
 (let ((?x73 (* b00 p00 s)))
 (let ((?x1060 (+ (* q00 r00 b) ?x73 (* (- 1) (* b00 r00 q)) (* (- 1) (* p00 s00 b)) (* a00 s00 q) (* (- 1) (* a00 q00 s)))))
 (let (($x1168 (= ?x1060 0)))
 (let ((?x1522 (* a00 s00 p)))
 (let ((?x1525 (* q00 r00 a)))
 (let ((?x65 (* b00 p00 r)))
 (let ((?x1500 (+ (* (- 1) (* b00 r00 p)) (* (- 1) (* p00 s00 a)) ?x65 ?x1525 ?x1522 (* (- 1) (* a00 q00 r)))))
 (let ((?x59 (* b p)))
 (let ((?x55 (* a00 q00)))
 (let (($x1561 (= (+ (* (- 1) (* q a)) ?x55 (* (- 1) (* b00 p00)) ?x59) 0)))
 (let ((?x41 (* q00 r00)))
 (let ((?x37 (* p00 s00)))
 (let ((?x141 (* (- 1) ?x37)))
 (let ((?x1985 (* s p)))
 (let (($x1488 (and (= (+ (* (- 1) (* r q)) ?x1985 ?x141 ?x41) 0) (= (+ (* (- 1) (* r b)) ?x1708 (* s a) ?x51) 0) $x1561 (= ?x1500 0) $x1168 $x1505)))
 (let ((?x105 (- q p)))
 (let ((?x99 (- b a)))
 (let ((?x102 (- s r)))
 (let ((?x106 (* a a a ?x99 ?x99 ?x99 p p p ?x105 ?x105 ?x105 r r ?x102 ?x102)))
 (let ((?x110 (- (- ?x106 (* a ?x99 p p p ?x105 ?x105 r r)) (* a ?x99 ?x99 ?x99 p ?x105 ?x105 ?x105 r r r))))
 (let (($x112 (= (* (+ (- (* (- 1) ?x99 r) ?x47) (* a ?x102) ?x51) ?x110) 0)))
 (let ((?x84 (- r s)))
 (let ((?x90 (- p q)))
 (let ((?x87 (- a b)))
 (let ((?x91 (* ?x87 ?x87 ?x87 b b b ?x90 ?x90 ?x90 q q q ?x84 ?x84 s s)))
 (let ((?x95 (- (- ?x91 (* ?x87 b ?x90 ?x90 ?x90 q q ?x84 ?x84)) (* ?x87 b b b ?x90 q q q ?x84 ?x84 ?x84))))
 (let (($x97 (= (* (+ (- (* (- 1) b ?x84) ?x47) (* ?x87 s) ?x51) ?x95) 0)))
 (let ((?x81 (* a00 q00 s)))
 (let ((?x76 (* b p00 s00)))
 (let ((?x80 (+ (- (- (+ (* b q00 r00) ?x73) (* b00 q r00)) ?x76) (* a00 q s00))))
 (let ((?x69 (* a00 q00 r)))
 (let ((?x66 (* a q00 r00)))
 (let ((?x68 (+ (- (* (- 1) b00 p r00) (* a p00 s00)) ?x65 ?x66 (* a00 p s00))))
 (let (($x61 (= (+ (- (+ (* (- 1) a q) ?x55) (* b00 p00)) ?x59) 0)))
 (let (($x44 (= (+ (- (+ (* (- 1) q r) (* p s)) ?x37) ?x41) 0)))
 (let (($x115 (and $x44 (= (+ (- (* (- 1) b r) ?x47) (* a s) ?x51) 0) $x61 (= (- ?x68 ?x69) 0) (= (- ?x80 ?x81) 0) (or (not $x97) (not $x112)))))
 (rewrite (= $x115 $x1488)))))))))))))))))))))))))))))))))))))))))))))))))))))))))))))
 ))
 (let ((@x117 (asserted $x116)))
 (let ((@x1503 (mp (mp @x117 (quant-intro (proof-bind ?x1518) (= $x116 $x1546)) $x1546) (rewrite (= $x1546 $x1546)) $x1546)))
 (let ((@x2039 (mp (mp @x1503 (quant-intro (proof-bind ?x1548) (= $x1546 $x1243)) $x1243) (quant-intro (proof-bind ?x1436) (= $x1243 $x1432)) $x1432)))
 (let ((@x191 (mp (mp~ @x2039 (sk (~ $x1432 $x1299)) $x1299) (rewrite (= $x1299 $x580)) $x580)))
 (let ((@x1258 (and-elim @x191 $x1003)))
 (let ((@x1264 (unit-resolution ((_ th-lemma arith triangle-eq) (or (not $x1003) $x1185)) @x1258 $x1185)))
 (let (($x1082 (<= ?x968 0)))
 (let ((@x1035 (unit-resolution ((_ th-lemma arith triangle-eq) (or (not $x1003) $x1082)) @x1258 $x1082)))
 (let (($x323 (not (<= ?x227 0))))
 (let (($x1162 (>= ?x393 0)))
 (let (($x1157 (<= ?x393 0)))
 (let ((@x1276 (unit-resolution ((_ th-lemma arith triangle-eq) (or $x1263 (not $x1157) (not $x1162))) (lemma ((_ th-lemma arith farkas 1 1 1) (hypothesis (not $x1157)) @x1035 @x1264 false) $x1157) (lemma ((_ th-lemma arith farkas 1 1 1) (hypothesis (not $x1162)) @x1035 @x1264 false) $x1162) $x1263)))
 (let (($x1159 (>= ?x227 0)))
 (let ((@x714 (unit-resolution ((_ th-lemma arith triangle-eq) (or $x1242 $x323 (not $x1159))) (lemma ((_ th-lemma arith farkas 1 1 1) (hypothesis (not $x1159)) @x1035 @x1264 false) $x1159) (unit-resolution (and-elim @x191 $x2006) @x1276 $x226) $x323)))
 ((_ th-lemma arith farkas 1 1 1) @x714 @x1035 @x1264 false)))))))))))))))))))))))))))))))))))))))))))))))))))))))))))))))))))))))))))))))))))))))))))))))))))))))))))))))))))))))))))))))))))))

(:added-eqs                 10
 :arith-assert-diseq        3
 :arith-assert-lower        19
 :arith-assert-upper        18
 :arith-conflicts           4
 :arith-eq-adapter          11
 :arith-fixed-eqs           6
 :arith-grobner             4
 :arith-max-min             864
 :arith-nonlinear-horner    48
 :arith-num-rows            14
 :arith-pivots              5
 :arith-pseudo-nonlinear    8
 :arith-row-summations      1
 :arith-tableau-max-columns 123
 :arith-tableau-max-rows    14
 :conflicts                 4
 :decisions                 7
 :del-clause                27
 :final-checks              4
 :max-memory                590.88
 :memory                    3.37
 :mk-bool-var               39
 :mk-clause                 40
 :num-allocs                201610795080832.00
 :num-checks                1
 :propagations              19
 :rlimit-count              219782513
 :time                      281.69
 :total-time                281.45)
